Normalized Data/p01_1_normalized_splitx10_0.vrp
NAME:p01_1_NORMALIZED_splitx10_
BEST_KNOWN: 0
COMMENT: 0
DIMENSION: 189
CAPACITY: 1000
EDGE_WEIGHT_FORMAT: FUNCTION
EDGE_WEIGHT_TYPE: EXACT_2D
NODE_COORD_SECTION
1 0.00000 0.00000
2 -6 -23
3 -6 -23
4 -6 -23
5 38 38
6 38 38
7 38 38
8 38 38
9 38 38
10 -1 33
11 -1 33
12 -1 33
13 -1 33
14 -1 33
15 -14 -25
16 -14 -25
17 -14 -25
18 43 45
19 43 45
20 43 45
21 31 -31
22 31 -31
23 31 -31
24 26 23
25 26 23
26 26 23
27 -15 -27
28 -15 -27
29 -15 -27
30 -15 -27
31 4 -46
32 4 -46
33 4 -46
34 4 -46
35 4 -46
36 18 -17
37 18 -17
38 18 -17
39 18 -17
40 18 -17
41 1 -22
42 1 -22
43 -1 -17
44 -1 -17
45 -1 -17
46 -1 -17
47 -1 -17
48 44 -45
49 44 -45
50 44 -45
51 44 -45
52 44 -45
53 44 -45
54 14 32
55 14 32
56 14 32
57 14 32
58 14 32
59 -47 39
60 -47 39
61 -1 -6
62 -1 -6
63 21 43
64 21 43
65 21 43
66 21 43
67 21 43
68 21 43
69 -9 28
70 -9 28
71 37 -31
72 37 -31
73 37 -31
74 37 -31
75 24 -27
76 24 -27
77 38 9
78 38 9
79 38 9
80 19 31
81 19 31
82 19 31
83 19 31
84 19 31
85 19 31
86 19 31
87 -42 -14
88 -42 -14
89 -42 -14
90 -42 -14
91 -42 -14
92 -5 49
93 -5 49
94 -5 49
95 2 18
96 2 18
97 2 18
98 2 18
99 2 18
100 -22 41
101 -22 41
102 -22 41
103 -46 12
104 -46 12
105 -46 12
106 -46 12
107 -41 -26
108 -41 -26
109 -41 -26
110 -43 -9
111 -43 -9
112 -43 -9
113 -43 -9
114 -24 43
115 -24 43
116 -37 8
117 -37 8
118 -37 8
119 39 -17
120 39 -17
121 39 -17
122 -28 -49
123 -28 -49
124 -28 -49
125 -28 -49
126 -28 -49
127 -28 -49
128 -10 34
129 -10 34
130 -10 34
131 -10 34
132 -10 34
133 24 46
134 24 46
135 17 19
136 17 19
137 17 19
138 -11 47
139 -11 47
140 -11 47
141 -11 47
142 50 45
143 50 45
144 50 45
145 50 45
146 50 45
147 45 47
148 45 47
149 45 47
150 45 47
151 -25 -29
152 -47 29
153 -47 29
154 -47 29
155 -47 29
156 2 -36
157 2 -36
158 2 -36
159 36 -25
160 36 -25
161 36 -25
162 36 -25
163 36 -25
164 6 11
165 6 11
166 6 11
167 6 11
168 6 11
169 6 11
170 -50 -47
171 -50 -47
172 -50 -47
173 27 5
174 27 5
175 27 5
176 27 5
177 -49 -37
178 -49 -37
179 -49 -37
180 -49 -37
181 -49 -37
182 22 19
183 22 19
184 22 19
185 -44 0
186 -44 0
187 49 -3
188 49 -3
189 49 -3
DEMAND_SECTION
1 0
2 200
3 200
4 50
5 200
6 50
7 10
8 10
9 10
10 200
11 50
12 10
13 10
14 10
15 200
16 10
17 10
18 200
19 200
20 10
21 100
22 10
23 10
24 200
25 100
26 10
27 200
28 50
29 10
30 10
31 200
32 200
33 10
34 10
35 10
36 200
37 50
38 10
39 10
40 10
41 100
42 50
43 200
44 50
45 10
46 10
47 10
48 200
49 200
50 50
51 10
52 10
53 10
54 200
55 200
56 10
57 10
58 10
59 200
60 10
61 200
62 50
63 200
64 100
65 50
66 10
67 10
68 10
69 100
70 50
71 200
72 200
73 10
74 10
75 200
76 10
77 200
78 200
79 100
80 200
81 200
82 50
83 10
84 10
85 10
86 10
87 200
88 10
89 10
90 10
91 10
92 100
93 10
94 10
95 200
96 100
97 10
98 10
99 10
100 200
101 200
102 50
103 200
104 200
105 50
106 10
107 200
108 200
109 10
110 200
111 50
112 10
113 10
114 200
115 50
116 200
117 100
118 10
119 200
120 100
121 50
122 200
123 100
124 10
125 10
126 10
127 10
128 200
129 50
130 10
131 10
132 10
133 200
134 100
135 200
136 200
137 10
138 100
139 10
140 10
141 10
142 100
143 50
144 10
145 10
146 10
147 200
148 100
149 50
150 10
151 200
152 200
153 100
154 10
155 10
156 200
157 50
158 10
159 200
160 100
161 10
162 10
163 10
164 100
165 50
166 10
167 10
168 10
169 10
170 200
171 100
172 10
173 100
174 50
175 10
176 10
177 100
178 50
179 10
180 10
181 10
182 200
183 100
184 50
185 100
186 50
187 200
188 200
189 10
DEPOT_SECTION
1
-1
EOF