Normalized Data/p01_1_normalized_splitx10_0.sol
188 -3 1 2 40 41 43 42 46 45 44 -5 6 7 8 4 133 132 62 63 66 65 64 67 56 57 55 -10 91 93 92 140 139 138 137 114 113 99 101 100 -14 29 26 27 125 122 121 123 126 124 150 -15 16 28 171 169 170 178 177 179 180 176 108 107 106 -19 17 18 149 146 148 147 144 143 145 142 141 -22 48 47 50 52 51 49 72 71 70 73 -37 36 39 38 35 30 34 31 32 33 155 157 156 -53 54 82 81 85 79 83 80 84 -59 58 152 153 154 151 105 103 104 102 -60 61 -69 68 128 130 131 129 127 9 12 13 11 96 94 95 97 98 -75 74 21 20 162 161 160 158 159 120 119 118 -77 76 78 186 188 187 -86 88 87 89 90 111 110 109 112 184 185 116 115 117 -136 135 134 164 168 163 166 165 167 -175 174 173 172 25 23 24 182 181 183 0 





OBJ=
1668.693
BEST_KNOWN=
0.000